8688
37, 46, 16, 44, 34, 40, 38, 48, 24, 15, 5, 6, 25, 4, 43, 33, 11, 51, 12, 28, 27, 13, 52, 14, 26, 47, 29, 30, 50, 20, 23, 31, 18, 21, 42, 7, 2, 17, 3, 41, 9, 10, 8, 19, 45, 32, 22, 1, 49, 35, 36, 39
